//Dat File

outFile="MPVSBPP_SET1_IT200_ITV1_NT1_TS3_WT1_VT1_REP6";
m=200;
o=32;
p=3;
numVTypes=1;

demand = [3, 4, 4, 6, 4, 6, 6, 8, 8, 10, 9, 4, 2, 8, 3, 2, 5, 7, 2, 7, 1, 1, 5, 5, 9, 7, 3, 10, 11, 4, 4, 8, 7, 4, 7, 7, 8, 10, 11, 10, 6, 3, 3, 8, 7, 6, 2, 4, 2, 11, 3, 7, 3, 7, 6, 2, 7, 1, 4, 1, 3, 2, 9, 1, 7, 4, 3, 4, 9, 4, 5, 5, 11, 7, 2, 10, 7, 4, 4, 11, 11, 9, 6, 3, 7, 9, 7, 4, 9, 1, 5, 5, 1, 1, 10, 3, 3, 6, 8, 8, 5, 11, 6, 9, 7, 8, 11, 7, 9, 7, 11, 6, 1, 11, 10, 3, 5, 2, 1, 10, 6, 2, 9, 11, 6, 9, 7, 3, 5, 7, 2, 6, 8, 8, 11, 2, 2, 6, 6, 7, 3, 10, 7, 9, 9, 8, 4, 1, 1, 2, 18, 14, 15, 15, 17, 18, 12, 13, 14, 12, 18, 13, 15, 15, 14, 15, 13, 13, 16, 16, 12, 16, 16, 16, 12, 19, 12, 14, 18, 14, 16, 19, 16, 17, 16, 19, 13, 13, 16, 18, 14, 15, 16, 19, 18, 13, 14, 14, 18, 18];
Depot_Cap = [30000, 30000, 30000];
Tarif = [10, 3, 7];
VeicVolume = [100];
VeicCost = [100];
VeicType = [1, 1, 1, 1, 1, 1, 1, 1, 1, 1, 1, 1, 1, 1, 1, 1, 1, 1, 1, 1, 1, 1, 1, 1, 1, 1, 1, 1, 1, 1, 1, 1];
Elect_vehicle = [[70, 100, 30], [70, 100, 30], [70, 100, 30], [70, 100, 30], [70, 100, 30], [70, 100, 30], [70, 100, 30], [70, 100, 30], [70, 100, 30], [70, 100, 30], [70, 100, 30], [70, 100, 30], [70, 100, 30], [70, 100, 30], [70, 100, 30], [70, 100, 30], [70, 100, 30], [70, 100, 30], [70, 100, 30], [70, 100, 30], [70, 100, 30], [70, 100, 30], [70, 100, 30], [70, 100, 30], [70, 100, 30], [70, 100, 30], [70, 100, 30], [70, 100, 30], [70, 100, 30], [70, 100, 30], [70, 100, 30], [70, 100, 30]];